% Data for perfect square placement problem:
% http://www.hakank.org/minizinc/perfect_square_placement.mzn
% Data is originally from CSPLib:
% http://www.cs.st-andrews.ac.uk/~ianm/CSPLib/prob/prob009/results

% problem 154 
n = 524;
size = 25;
a = [9,12,20,21,33,35,37,39,54,55,61,62,87,90,98,101,125,132,135,141,145,159,163,164,220];

